results/res_prop_muc/res_Cimatti_mathsat_cores/QF_LRA/gasburner-prop3-2.smt.smt2.res
unsat
( c12
  c17
  c22
  c23
  c35
  c38
  c4
  c42
  c44
  c46
  c48
  c50
  c54
  c56
  c58
  c59
  c60
  c61 )
